db/inputs/502723245234411249611237260562747715751.smt2
(set-logic QF_FP)
(declare-const x0 (_ FloatingPoint 11 53))
(declare-const x1 (_ FloatingPoint 11 53))
(declare-const x2 (_ FloatingPoint 11 53))
(declare-const x3 (_ FloatingPoint 11 53))
(declare-const x4 (_ FloatingPoint 11 53))
(declare-const x5 (_ FloatingPoint 11 53))
(declare-const x6 (_ FloatingPoint 11 53))
(declare-const x7 (_ FloatingPoint 11 53))
(declare-const x8 (_ FloatingPoint 11 53))
(assert (fp.geq (fp.sub RNE x7 x5) (fp.mul RNE x4 x2)))
(assert (fp.eq (fp.add RNE x4 x7) (fp.div RNE x3 x6)))
(assert (fp.geq (fp.add RNE x2 x5) (fp.div RNE x7 x7)))
(assert (fp.lt (fp.mul RNE x8 x7) (fp.sub RNE x1 x2)))
(assert (fp.eq (fp.sub RNE x4 x1) (fp.div RNE x2 x5)))
(assert (fp.lt (fp.neg x8) (fp.add RNE x2 x8)))
(assert (fp.leq (fp.neg x5) (fp.sub RNE x0 x1)))
(assert (fp.leq (fp.sub RNE x4 x0) (fp.sub RNE x7 x3)))
(assert (fp.leq (fp.neg x2) (fp.neg x6)))
(assert (fp.lt (fp.add RNE x1 x1) (fp.sub RNE x2 x5)))
(assert (fp.lt (fp.mul RNE x0 x4) (fp.add RNE x3 x2)))
(assert (fp.eq (fp.neg x8) (fp.mul RNE x6 x8)))
(assert (fp.gt (fp.mul RNE x5 x1) (fp.mul RNE x1 x1)))
(assert (fp.eq (fp.add RNE x0 x7) (fp.add RNE x3 x0)))
(assert (fp.leq (fp.sub RNE x0 x4) (fp.add RNE x1 x8)))
(assert (fp.lt (fp.sub RNE x5 x8) (fp.div RNE x5 x8)))
(assert (fp.leq (fp.add RNE x4 x8) (fp.add RNE x5 x0)))
(check-sat)
