db/data/502723245234411249611237260562747715751.z3.out
-------------------
2500.173378680
